(set-logic QF_S)
(declare-fun var_0xINPUT_133290 () String)
(assert (and (= (len var_0xINPUT_133290) 0) (= (len var_0xINPUT_133290) 0) (not (= var_0xINPUT_133290 "Example:")) (not (= var_0xINPUT_133290 "K9BOAGJDFi"))))
(check-sat var_0xINPUT_133290)